c "899159.clq"
p edge 120 464
e 1 5
e 1 6
e 1 9
e 1 14
e 1 32
e 1 46
e 1 48
e 1 49
e 1 57
e 1 73
e 1 93
e 2 5
e 2 6
e 2 7
e 2 8
e 2 9
e 2 10
e 2 11
e 2 17
e 2 19
e 2 21
e 2 22
e 2 23
e 2 24
e 2 30
e 2 32
e 2 37
e 2 39
e 2 49
e 2 52
e 2 61
e 2 66
e 2 67
e 2 68
e 2 81
e 2 84
e 2 85
e 2 91
e 2 92
e 2 99
e 3 5
e 3 6
e 3 7
e 3 8
e 3 10
e 3 13
e 3 17
e 3 25
e 3 42
e 3 47
e 3 50
e 3 65
e 3 98
e 3 102
e 3 115
e 3 117
e 4 5
e 4 8
e 4 11
e 4 13
e 4 17
e 4 24
e 4 34
e 5 6
e 5 7
e 5 12
e 5 13
e 5 15
e 5 21
e 5 34
e 5 35
e 5 38
e 5 45
e 5 52
e 5 59
e 5 60
e 5 64
e 5 79
e 5 108
e 5 110
e 5 111
e 5 116
e 5 120
e 6 7
e 6 8
e 6 9
e 6 10
e 6 12
e 6 14
e 6 18
e 6 23
e 6 24
e 6 26
e 6 31
e 6 35
e 6 37
e 6 41
e 6 42
e 6 46
e 6 48
e 6 55
e 6 58
e 6 64
e 6 65
e 6 66
e 6 73
e 6 78
e 6 118
e 6 119
e 6 120
e 7 11
e 7 15
e 7 18
e 7 19
e 7 27
e 7 32
e 7 33
e 7 40
e 7 41
e 7 57
e 7 109
e 8 9
e 8 16
e 8 20
e 8 31
e 8 35
e 8 38
e 8 45
e 8 54
e 8 55
e 8 56
e 8 61
e 8 71
e 8 88
e 8 93
e 8 95
e 8 100
e 8 105
e 9 10
e 9 15
e 9 16
e 9 17
e 9 21
e 9 23
e 9 36
e 9 37
e 9 50
e 9 53
e 9 55
e 9 65
e 9 87
e 9 96
e 9 108
e 9 111
e 9 112
e 9 118
e 10 11
e 10 12
e 10 14
e 10 25
e 10 26
e 10 28
e 10 30
e 10 32
e 10 35
e 10 36
e 10 39
e 10 40
e 10 44
e 10 47
e 10 51
e 10 58
e 10 76
e 10 78
e 10 79
e 10 86
e 10 91
e 10 93
e 10 95
e 10 99
e 10 101
e 10 106
e 10 110
e 10 120
e 11 12
e 11 13
e 11 15
e 11 16
e 11 22
e 11 29
e 11 36
e 11 43
e 11 44
e 11 46
e 11 50
e 11 58
e 11 67
e 11 77
e 11 97
e 11 100
e 11 101
e 12 14
e 12 16
e 12 20
e 12 23
e 12 29
e 12 51
e 12 52
e 12 63
e 12 76
e 12 80
e 12 89
e 12 101
e 13 18
e 13 19
e 13 20
e 13 42
e 13 45
e 13 52
e 13 63
e 13 71
e 13 72
e 13 79
e 13 83
e 13 96
e 13 97
e 13 105
e 14 18
e 14 24
e 14 25
e 14 28
e 14 33
e 14 36
e 14 67
e 14 68
e 14 69
e 14 97
e 14 100
e 15 29
e 15 31
e 15 53
e 15 87
e 15 114
e 16 21
e 16 22
e 16 38
e 16 44
e 16 58
e 16 62
e 16 65
e 17 83
e 17 95
e 18 19
e 18 20
e 18 61
e 18 63
e 18 66
e 18 72
e 18 74
e 19 22
e 19 26
e 19 71
e 19 118
e 20 27
e 20 28
e 20 29
e 20 30
e 20 34
e 20 47
e 20 51
e 20 54
e 20 56
e 20 62
e 20 95
e 20 96
e 21 27
e 21 28
e 21 30
e 22 25
e 22 31
e 22 70
e 22 75
e 22 90
e 22 92
e 23 39
e 23 55
e 23 69
e 23 76
e 23 87
e 23 90
e 24 34
e 24 48
e 25 26
e 25 27
e 25 43
e 25 45
e 25 60
e 25 66
e 25 70
e 25 78
e 25 82
e 26 33
e 26 43
e 26 71
e 26 97
e 26 114
e 27 72
e 28 38
e 28 42
e 28 57
e 28 102
e 28 103
e 28 106
e 29 68
e 29 77
e 30 40
e 30 50
e 30 62
e 30 70
e 30 78
e 30 112
e 31 33
e 31 37
e 31 43
e 31 44
e 31 46
e 31 47
e 31 64
e 31 80
e 31 85
e 31 89
e 31 98
e 31 108
e 31 109
e 32 40
e 32 72
e 32 102
e 32 110
e 33 41
e 33 62
e 33 69
e 33 73
e 33 86
e 33 89
e 33 115
e 33 119
e 34 60
e 34 107
e 35 107
e 36 56
e 36 61
e 36 83
e 36 91
e 37 39
e 37 41
e 37 81
e 37 116
e 38 53
e 38 54
e 38 64
e 38 73
e 38 81
e 39 48
e 40 63
e 41 75
e 41 88
e 41 90
e 42 69
e 42 92
e 43 49
e 43 84
e 43 99
e 43 112
e 43 113
e 43 120
e 44 49
e 44 82
e 44 104
e 45 59
e 46 84
e 46 98
e 46 113
e 47 51
e 47 59
e 47 74
e 47 77
e 47 79
e 47 102
e 47 104
e 47 119
e 48 56
e 48 99
e 49 110
e 50 75
e 51 60
e 51 87
e 51 98
e 52 53
e 52 59
e 52 74
e 53 54
e 53 68
e 53 77
e 53 94
e 54 57
e 54 70
e 54 86
e 55 94
e 57 86
e 57 105
e 57 116
e 59 83
e 59 89
e 59 100
e 60 94
e 60 114
e 61 85
e 62 84
e 64 82
e 65 103
e 66 67
e 66 88
e 66 93
e 67 107
e 67 109
e 67 111
e 68 85
e 69 74
e 69 75
e 70 80
e 70 82
e 70 90
e 70 106
e 70 108
e 72 91
e 73 76
e 77 80
e 77 81
e 77 94
e 78 105
e 78 115
e 78 116
e 79 103
e 79 112
e 80 117
e 81 92
e 81 119
e 84 103
e 84 104
e 85 88
e 85 117
e 86 109
e 88 101
e 89 106
e 91 115
e 93 107
e 95 96
e 95 113
e 101 104
e 103 111
e 107 117
e 110 113
e 110 114
e 116 118
